10 10
2 1 4 3 7 2 9 5 8 11 1 0
2 2 4 5 7 4 9 6 8 7 1 0
2 5 4 4 7 3 9 2 8 7 1 0
2 5 4 4 7 1 9 6 8 7 1 0
2 7 4 5 7 15 9 4 8 1 1 0
2 8 4 4 7 8 9 10 8 1 1 0
2 1 4 3 7 13 9 7 8 2 1 0
2 5 4 2 7 5 9 8 8 4 1 0
2 3 4 3 7 5 9 4 8 1 1 0
2 3 4 6 7 1 9 15 8 2 1 0